c This is an instance of the exact track of PACE 2020 Challenge, see https://pacechallenge.org/2020/ 
c TYPE: infrastracture 
c ORIGIN: Open street maps 
c DESCRIPTION: Płazowo (Poland): a road network downloaded from open street maps using osmnx Python package 
p tdp 94 118
1 69
1 68
1 64
2 39
2 36
2 54
3 53
3 7
3 63
4 6
4 67
4 5
6 9
6 12
7 71
7 75
8 34
9 14
9 13
10 32
11 59
11 70
11 55
14 15
14 16
14 48
16 64
16 21
17 92
17 19
17 39
18 19
19 20
22 27
22 65
22 90
22 46
23 82
23 31
23 24
24 82
24 64
25 92
25 26
27 31
27 47
28 42
29 47
29 30
30 38
30 37
31 35
32 56
33 70
34 85
35 36
35 37
36 82
37 38
38 54
39 54
40 58
40 57
40 42
41 58
41 60
41 44
42 43
43 45
43 83
44 61
44 87
44 52
45 69
45 46
45 83
46 69
47 88
48 69
48 67
48 49
49 63
49 60
50 52
50 74
51 64
52 56
53 67
53 63
56 61
57 65
57 87
58 60
60 62
61 62
62 66
63 66
65 83
66 71
70 79
71 89
71 75
72 73
72 80
72 88
73 76
73 81
74 94
74 86
74 91
75 85
75 79
76 77
76 78
79 85
84 86
86 87
92 93
